* ENCODING=ISO-8859-1
NAME          CPLEX
ROWS
 N  obj1    
 G  c1      
 G  c2      
 G  c3      
 G  c4      
 G  c5      
 G  c6      
 G  c7      
 G  c8      
 G  c9      
 G  c10     
 G  c11     
 G  c12     
 G  c13     
 G  c14     
 G  c15     
 G  c16     
 G  c17     
 G  c18     
 G  c19     
 G  c20     
 G  c21     
 G  c22     
 G  c23     
 G  c24     
 G  c25     
COLUMNS
    MARK0000  'MARKER'                 'INTORG'
    x1        obj1                            1
    x1        c4                            857
    x1        c6                            855
    x1        c10                           641
    x1        c13                           486
    x1        c24                           770
    x2        obj1                            1
    x3        obj1                            1
    x3        c5                            866
    x4        obj1                            1
    x4        c19                           446
    x4        c25                           973
    x5        obj1                            1
    x5        c2                            196
    x5        c4                            589
    x5        c15                           142
    x5        c22                           858
    x5        c23                           430
    x6        obj1                            1
    x6        c2                            188
    x6        c4                            310
    x6        c25                           994
    x7        obj1                            1
    x7        c6                            580
    x7        c22                           602
    x7        c25                           367
    x8        obj1                            1
    x8        c12                           912
    x8        c15                           513
    x9        obj1                            1
    x9        c16                           920
    x10       obj1                            1
    x10       c1                            163
    x10       c3                            171
    x10       c18                           249
    x10       c19                           336
    x11       obj1                            1
    x11       c22                           222
    x12       obj1                            1
    x12       c3                            370
    x12       c25                           483
    x13       obj1                            1
    x13       c11                           116
    x14       obj1                            1
    x14       c20                           863
    x14       c22                           530
    x15       obj1                            1
    x15       c4                            366
    x16       obj1                            1
    x17       obj1                            1
    x17       c1                            464
    x17       c20                           393
    x18       obj1                            1
    x18       c7                            276
    x18       c18                           784
    x19       obj1                            1
    x19       c16                           352
    x19       c21                           705
    x19       c24                           277
    x20       obj1                            1
    x20       c7                            990
    x20       c10                           702
    x20       c14                           864
    x21       obj1                            1
    x21       c1                            182
    x21       c9                            283
    x21       c20                           796
    x21       c21                           756
    x21       c25                           472
    x22       obj1                            1
    x23       obj1                            1
    x23       c5                            259
    x23       c7                            665
    x23       c20                           855
    x24       obj1                            1
    x24       c6                            747
    x24       c14                           248
    x24       c21                           705
    x25       obj1                            1
    x25       c11                           253
    x25       c14                           724
    x25       c20                           716
    x26       obj1                            1
    x26       c3                            541
    x27       obj1                            1
    x27       c3                            780
    x27       c19                           640
    x27       c22                           552
    x28       obj1                            1
    x28       c5                            577
    x28       c11                           325
    x29       obj1                            1
    x29       c11                           298
    x29       c23                           816
    x30       obj1                            1
    x30       c4                            503
    x30       c8                            130
    x30       c13                           470
    x30       c21                           452
    x30       c23                           405
    x31       obj1                            1
    x31       c6                            152
    x31       c11                           288
    x31       c17                           719
    x32       obj1                            1
    x32       c7                            710
    x32       c12                           605
    x33       obj1                            1
    x33       c2                            359
    x34       obj1                            1
    x34       c6                            397
    x34       c12                           480
    x34       c15                           782
    x35       obj1                            1
    x35       c3                            808
    x35       c5                            525
    x35       c8                            500
    x35       c13                           638
    x35       c14                           271
    x35       c24                           909
    x36       obj1                            1
    x36       c9                            279
    x36       c18                           548
    x36       c19                           768
    x36       c20                           718
    x36       c23                           254
    x37       obj1                            1
    x37       c5                            565
    x37       c9                            326
    x37       c12                           460
    x37       c19                           851
    x37       c22                           131
    x38       obj1                            1
    x38       c5                            949
    x38       c19                           724
    x39       obj1                            1
    x39       c7                            649
    x39       c16                           756
    x39       c17                           635
    x39       c22                           833
    x40       obj1                            1
    x40       c6                            445
    x40       c8                            257
    x40       c12                           674
    x41       obj1                            1
    x41       c2                            288
    x41       c7                            214
    x42       obj1                            1
    x42       c8                            239
    x42       c10                           131
    x42       c17                           379
    x43       obj1                            1
    x43       c11                           502
    x43       c16                           955
    x43       c17                           712
    x44       obj1                            1
    x44       c6                            925
    x44       c25                           859
    x45       obj1                            1
    x45       c18                           418
    x46       obj1                            1
    x46       c8                            551
    x46       c17                           517
    x47       obj1                            1
    x47       c3                            919
    x47       c4                            870
    x47       c5                            701
    x47       c7                            422
    x47       c8                            289
    x47       c20                           951
    x48       obj1                            1
    x48       c3                            624
    x48       c15                           527
    x49       obj1                            1
    x49       c4                            697
    x49       c13                           559
    x50       obj1                            1
    x50       c12                           642
    x50       c23                           839
    MARK0001  'MARKER'                 'INTEND'
RHS
    rhs       c1                            405
    rhs       c2                            516
    rhs       c3                           2107
    rhs       c4                           2096
    rhs       c5                           2221
    rhs       c6                           2051
    rhs       c7                           1963
    rhs       c8                            983
    rhs       c9                            444
    rhs       c10                           737
    rhs       c11                           891
    rhs       c12                          1887
    rhs       c13                          1077
    rhs       c14                          1054
    rhs       c15                           982
    rhs       c16                          1492
    rhs       c17                          1481
    rhs       c18                          1000
    rhs       c19                          1883
    rhs       c20                          2646
    rhs       c21                          1309
    rhs       c22                          1864
    rhs       c23                          1372
    rhs       c24                           978
    rhs       c25                          2074
BOUNDS
 LI bnd       x1        0
 LI bnd       x2        0
 LI bnd       x3        0
 LI bnd       x4        0
 LI bnd       x5        0
 LI bnd       x6        0
 LI bnd       x7        0
 LI bnd       x8        0
 LI bnd       x9        0
 LI bnd       x10       0
 LI bnd       x11       0
 LI bnd       x12       0
 LI bnd       x13       0
 LI bnd       x14       0
 LI bnd       x15       0
 LI bnd       x16       0
 LI bnd       x17       0
 LI bnd       x18       0
 LI bnd       x19       0
 LI bnd       x20       0
 LI bnd       x21       0
 LI bnd       x22       0
 LI bnd       x23       0
 LI bnd       x24       0
 LI bnd       x25       0
 LI bnd       x26       0
 LI bnd       x27       0
 LI bnd       x28       0
 LI bnd       x29       0
 LI bnd       x30       0
 LI bnd       x31       0
 LI bnd       x32       0
 LI bnd       x33       0
 LI bnd       x34       0
 LI bnd       x35       0
 LI bnd       x36       0
 LI bnd       x37       0
 LI bnd       x38       0
 LI bnd       x39       0
 LI bnd       x40       0
 LI bnd       x41       0
 LI bnd       x42       0
 LI bnd       x43       0
 LI bnd       x44       0
 LI bnd       x45       0
 LI bnd       x46       0
 LI bnd       x47       0
 LI bnd       x48       0
 LI bnd       x49       0
 LI bnd       x50       0
ENDATA
